Solving original (integer) problem with strategy gdp.bigm...
--- Job model.gms Start 02/14/26 17:58:16 52.2.0 d8e408be LEX-LEG x86 64bit/Linux
--- Applying:
    /package/gams/52.2/gmsprmun.txt
--- GAMS Parameters defined
    Input /local/scratch/a/sgusev/repos/k_means/data/gams_gurobi_gdp.bigm/no_mode/2026-02-14_17-58-16/original/model.gms
    Output /local/scratch/a/sgusev/repos/k_means/data/gams_gurobi_gdp.bigm/no_mode/2026-02-14_17-58-16/original/output.lst
    ScrDir /local/scratch/a/sgusev/repos/k_means/data/gams_gurobi_gdp.bigm/no_mode/2026-02-14_17-58-16/original/225a/
    SysDir /package/gams/52.2/
    CurDir /local/scratch/a/sgusev/repos/k_means/data/gams_gurobi_gdp.bigm/no_mode/2026-02-14_17-58-16/original/
    LogOption 3
    AppendLog 1
Licensee: David Bernal / SECQUOIA Research Group         G251008+0003Ac-GEN
          Purdue University, Davidson School of Chemical EngineeringDCE4838
          225a/gamslice.dat
          5a82958a-fbca-4a23
          node:66820903 mem:995 cores:48 ipport:34319 v:2                  
          Evaluation license: Not for commercial or production use
          The time-limited license stops working on : Jun 30, 2027
System information: 48 physical cores and 995 Gb physical memory detected
GAMS 52.2.0   Copyright (C) 1987-2025 GAMS Development. All rights reserved
--- Starting compilation
--- model.gms(210) 2 Mb
--- $echo File /local/scratch/a/sgusev/repos/k_means/data/gams_gurobi_gdp.bigm/no_mode/2026-02-14_17-58-16/original/gurobi.opt
--- model.gms(375) 2 Mb
--- Starting execution: elapsed 0:00:00.006
--- model.gms(219) 3 Mb
--- Generating MINLP model GAMS_MODEL
--- model.gms(223) 5 Mb
---   43 rows  56 columns  255 non-zeroes
---   630 nl-code  150 nl-non-zeroes
---   30 discrete-columns
--- Range statistics (absolute non-zero finite values)
--- RHS       [min, max] : [ 1.000E+00, 1.467E+01] - Zero values observed as well
--- Bound     [min, max] : [ 1.000E+00, 1.000E+02] - Zero values observed as well
--- Matrix    [min, max] : [ 2.099E-02, 1.467E+01]
--- model.gms(223) 3 Mb
--- Executing GUROBI (Solvelink=5): elapsed 0:00:00.009
Reading parameter(s) from "/local/scratch/a/sgusev/repos/k_means/data/gams_gurobi_gdp.bigm/no_mode/2026-02-14_17-58-16/original/gurobi.opt"
>>  NonConvex 2
>>  Threads 1
>>  MIPGap 1e-06
>>  MIPGapAbs 1e-10
>>  FeasibilityTol 1e-06
>>  OptimalityTol 1e-06
>>  IntFeasTol 1e-05
Finished reading from "/local/scratch/a/sgusev/repos/k_means/data/gams_gurobi_gdp.bigm/no_mode/2026-02-14_17-58-16/original/gurobi.opt"

... GRB_LICENSE_FILE = /local/scratch/a/sgusev/gurobi.lic

    Gurobi           52.2.0 d8e408be Dec 8, 2025           LEG x86 64bit/Linux    

... GAMS/Gurobi Link license.
... GMO Q Extraction (ThreePass): 0.00s

    Gurobi Optimizer version 13.0.0 build v13.0.0rc1 (linux64 - "Oracle Linux Server 9.7")
    
    CPU model: AMD EPYC 7643 48-Core Processor, instruction set [SSE2|AVX|AVX2]
    Thread count: 48 physical cores, 96 logical processors, using up to 1 threads
    
    Non-default parameters:
    TimeLimit  300
    MIPGap  1e-06
    LogToConsole  0
    NonConvex  2
    Threads  1
    
    Optimize a model with 12 rows, 55 columns and 34 nonzeros (Min)
    Model fingerprint: 0x0e5994ae
    Model has 10 linear objective coefficients
    Model has 30 quadratic constraints
    Variable types: 25 continuous, 30 integer (0 binary)
    Coefficient statistics:
      Matrix range     [1e+00, 1e+00]
      QMatrix range    [1e+00, 1e+00]
      QLMatrix range   [2e-02, 1e+01]
      Objective range  [1e+00, 1e+00]
      Bounds range     [1e+00, 1e+02]
      RHS range        [1e+00, 1e+00]
      QRHS range       [8e+00, 1e+01]
    Presolve added 30 rows and 3 columns
    Presolve time: 0.00s
    Presolved: 42 rows, 58 columns, 274 nonzeros
    Presolved model has 3 quadratic constraint(s)
    Variable types: 28 continuous, 30 integer (30 binary)
    
    Root relaxation: objective 0.000000e+00, 18 iterations, 0.00 seconds (0.00 work units)
    
        Nodes    |    Current Node    |     Objective Bounds      |     Work
     Expl Unexpl |  Obj  Depth IntInf | Incumbent    BestBd   Gap | It/Node Time
    
    H    0     0                      10.2471334    0.00000   100%     -    0s
    *    0     0               0      10.2471334    0.00000   100%     -    0s
         0     0    0.00000    0   10   10.24713    0.00000   100%     -    0s
         0     0    0.00000    0   20   10.24713    0.00000   100%     -    0s
         0     0    0.00000    0   20   10.24713    0.00000   100%     -    0s
         0     0    0.00000    0   20   10.24713    0.00000   100%     -    0s
    H    0     0                       8.9461008    0.00000   100%     -    0s
    *    0     0               0       8.9461008    0.00000   100%     -    0s
         0     0    0.00000    0   10    8.94610    0.00000   100%     -    0s
    H    0     0                       8.0244372    0.00000   100%     -    0s
         0     0    0.00000    0   18    8.02444    0.00000   100%     -    0s
         0     0    0.00000    0   21    8.02444    0.00000   100%     -    0s
         0     0    0.00000    0    2    8.02444    0.00000   100%     -    0s
         0     0    0.00000    0   14    8.02444    0.00000   100%     -    0s
         0     0    0.00000    0   19    8.02444    0.00000   100%     -    0s
         0     0    0.00000    0    4    8.02444    0.00000   100%     -    0s
         0     0    0.00000    0   12    8.02444    0.00000   100%     -    0s
         0     0    0.00000    0    6    8.02444    0.00000   100%     -    0s
         0     0    0.00000    0   12    8.02444    0.00000   100%     -    0s
         0     0    0.00000    0    2    8.02444    0.00000   100%     -    0s
         0     0    0.00000    0   12    8.02444    0.00000   100%     -    0s
         0     0    0.00000    0   10    8.02444    0.00000   100%     -    0s
         0     0    0.00000    0   16    8.02444    0.00000   100%     -    0s
         0     0    0.00000    0    8    8.02444    0.00000   100%     -    0s
         0     0    0.00000    0   15    8.02444    0.00000   100%     -    0s
         0     0    0.00000    0    4    8.02444    0.00000   100%     -    0s
         0     0    0.00000    0   12    8.02444    0.00000   100%     -    0s
         0     0    0.00000    0    6    8.02444    0.00000   100%     -    0s
         0     0    0.00000    0   12    8.02444    0.00000   100%     -    0s
         0     0    0.00000    0    6    8.02444    0.00000   100%     -    0s
         0     0    0.00000    0   10    8.02444    0.00000   100%     -    0s
         0     0    0.00000    0    6    8.02444    0.00000   100%     -    0s
         0     0    0.00000    0   10    8.02444    0.00000   100%     -    0s
         0     0    0.00000    0   10    8.02444    0.00000   100%     -    0s
         0     0    0.00000    0   12    8.02444    0.00000   100%     -    0s
         0     0    0.00000    0    6    8.02444    0.00000   100%     -    0s
         0     0    0.00000    0   12    8.02444    0.00000   100%     -    0s
         0     0    0.00000    0    6    8.02444    0.00000   100%     -    0s
         0     0    0.00000    0   10    8.02444    0.00000   100%     -    0s
         0     0    0.00000    0    6    8.02444    0.00000   100%     -    0s
         0     0    0.00000    0    8    8.02444    0.00000   100%     -    0s
         0     0    0.00000    0   16    8.02444    0.00000   100%     -    0s
         0     0    0.00000    0   10    8.02444    0.00000   100%     -    0s
         0     0    0.00000    0   12    8.02444    0.00000   100%     -    0s
         0     0    0.00000    0    8    8.02444    0.00000   100%     -    0s
         0     0    0.00000    0   12    8.02444    0.00000   100%     -    0s
         0     0    0.00000    0    6    8.02444    0.00000   100%     -    0s
         0     0    0.00000    0   10    8.02444    0.00000   100%     -    0s
         0     0    0.00000    0   10    8.02444    0.00000   100%     -    0s
         0     0    0.00000    0   14    8.02444    0.00000   100%     -    0s
         0     0    0.00000    0   10    8.02444    0.00000   100%     -    0s
         0     0    0.00000    0   16    8.02444    0.00000   100%     -    0s
         0     0    0.00000    0    8    8.02444    0.00000   100%     -    0s
         0     0    0.00000    0   16    8.02444    0.00000   100%     -    0s
         0     0    0.00000    0    6    8.02444    0.00000   100%     -    0s
         0     0    0.00000    0   14    8.02444    0.00000   100%     -    0s
         0     0    0.00000    0    6    8.02444    0.00000   100%     -    0s
         0     0    0.00000    0   12    8.02444    0.00000   100%     -    0s
         0     0    0.00000    0    6    8.02444    0.00000   100%     -    0s
         0     0    0.00000    0   12    8.02444    0.00000   100%     -    0s
         0     0    0.00000    0    8    8.02444    0.00000   100%     -    0s
         0     0    0.00000    0   10    8.02444    0.00000   100%     -    0s
         0     0    0.00000    0    8    8.02444    0.00000   100%     -    0s
         0     0    0.00000    0   12    8.02444    0.00000   100%     -    0s
         0     0    0.00000    0    8    8.02444    0.00000   100%     -    0s
         0     0    0.00000    0   10    8.02444    0.00000   100%     -    0s
         0     0    0.00000    0   10    8.02444    0.00000   100%     -    0s
         0     0    0.00000    0   16    8.02444    0.00000   100%     -    0s
         0     0    0.00000    0    4    8.02444    0.00000   100%     -    0s
         0     0    0.00000    0   10    8.02444    0.00000   100%     -    0s
         0     0    0.00000    0    6    8.02444    0.00000   100%     -    0s
         0     0    0.00000    0   12    8.02444    0.00000   100%     -    0s
         0     0    0.00000    0    6    8.02444    0.00000   100%     -    0s
         0     0    0.00000    0   10    8.02444    0.00000   100%     -    0s
         0     0    0.00000    0    2    8.02444    0.00000   100%     -    0s
         0     0    0.00000    0   10    8.02444    0.00000   100%     -    0s
         0     0    0.00000    0    6    8.02444    0.00000   100%     -    0s
         0     0    0.00000    0   12    8.02444    0.00000   100%     -    0s
         0     0    0.00000    0    8    8.02444    0.00000   100%     -    0s
         0     0    0.00000    0   14    8.02444    0.00000   100%     -    0s
         0     0    0.00000    0    4    8.02444    0.00000   100%     -    0s
         0     0    0.00000    0   12    8.02444    0.00000   100%     -    0s
         0     0    0.00000    0    4    8.02444    0.00000   100%     -    0s
         0     0    0.00000    0   14    8.02444    0.00000   100%     -    0s
         0     0    0.00000    0    4    8.02444    0.00000   100%     -    0s
         0     0    0.00000    0   12    8.02444    0.00000   100%     -    0s
         0     0    0.00000    0    6    8.02444    0.00000   100%     -    0s
         0     0    0.00000    0    8    8.02444    0.00000   100%     -    0s
         0     0    0.00000    0   16    8.02444    0.00000   100%     -    0s
         0     0    0.00000    0    8    8.02444    0.00000   100%     -    0s
         0     0    0.00000    0   14    8.02444    0.00000   100%     -    0s
         0     0    0.00000    0    6    8.02444    0.00000   100%     -    0s
         0     0    0.00000    0   16    8.02444    0.00000   100%     -    0s
         0     0    0.00000    0    8    8.02444    0.00000   100%     -    0s
         0     0    0.00000    0   17    8.02444    0.00000   100%     -    0s
         0     0    0.00000    0    6    8.02444    0.00000   100%     -    0s
         0     0    0.00000    0    8    8.02444    0.00000   100%     -    0s
         0     0    0.00000    0    8    8.02444    0.00000   100%     -    0s
         0     0    0.00000    0   12    8.02444    0.00000   100%     -    0s
         0     0    0.00000    0    2    8.02444    0.00000   100%     -    0s
         0     0    0.00000    0    8    8.02444    0.00000   100%     -    0s
         0     0    0.00000    0   12    8.02444    0.00000   100%     -    0s
         0     0    0.00000    0   10    8.02444    0.00000   100%     -    0s
         0     0    0.00000    0   16    8.02444    0.00000   100%     -    0s
         0     0    0.00000    0    8    8.02444    0.00000   100%     -    0s
         0     0    0.00000    0   17    8.02444    0.00000   100%     -    0s
         0     0    0.00000    0    8    8.02444    0.00000   100%     -    0s
         0     0    0.00000    0   12    8.02444    0.00000   100%     -    0s
         0     0    0.00000    0    6    8.02444    0.00000   100%     -    0s
         0     0    0.00000    0   12    8.02444    0.00000   100%     -    0s
         0     0    0.00000    0    6    8.02444    0.00000   100%     -    0s
         0     0    0.00000    0   14    8.02444    0.00000   100%     -    0s
         0     0    0.00000    0    6    8.02444    0.00000   100%     -    0s
         0     0    0.00000    0   14    8.02444    0.00000   100%     -    0s
         0     0    0.00000    0   10    8.02444    0.00000   100%     -    0s
         0     0    0.00000    0   12    8.02444    0.00000   100%     -    0s
         0     0    0.00000    0   10    8.02444    0.00000   100%     -    0s
         0     0    0.00000    0   10    8.02444    0.00000   100%     -    0s
         0     0    0.00000    0    8    8.02444    0.00000   100%     -    0s
         0     0    0.00000    0   20    8.02444    0.00000   100%     -    0s
         0     0    0.00000    0    4    8.02444    0.00000   100%     -    0s
         0     0    0.00000    0   16    8.02444    0.00000   100%     -    0s
         0     0    0.00000    0   10    8.02444    0.00000   100%     -    0s
         0     0    0.00000    0   14    8.02444    0.00000   100%     -    0s
         0     0    0.00000    0    6    8.02444    0.00000   100%     -    0s
         0     0    0.00000    0   12    8.02444    0.00000   100%     -    0s
         0     0    0.00000    0    6    8.02444    0.00000   100%     -    0s
         0     0    0.00000    0   12    8.02444    0.00000   100%     -    0s
         0     0    0.00000    0   10    8.02444    0.00000   100%     -    0s
         0     0    0.00000    0   12    8.02444    0.00000   100%     -    0s
         0     0    0.00000    0    6    8.02444    0.00000   100%     -    0s
         0     0    0.00000    0   14    8.02444    0.00000   100%     -    0s
         0     0    0.00000    0    4    8.02444    0.00000   100%     -    0s
         0     0    0.00000    0   14    8.02444    0.00000   100%     -    0s
         0     0    0.00000    0   12    8.02444    0.00000   100%     -    0s
         0     0    0.00000    0   12    8.02444    0.00000   100%     -    0s
         0     0    0.00000    0    4    8.02444    0.00000   100%     -    0s
         0     0    0.00000    0   14    8.02444    0.00000   100%     -    0s
         0     0    0.00000    0    6    8.02444    0.00000   100%     -    0s
         0     0    0.00000    0   14    8.02444    0.00000   100%     -    0s
         0     0    0.00000    0    4    8.02444    0.00000   100%     -    0s
         0     0    0.00000    0   14    8.02444    0.00000   100%     -    0s
         0     0    0.00000    0    6    8.02444    0.00000   100%     -    0s
         0     0    0.00000    0   10    8.02444    0.00000   100%     -    0s
         0     0    0.00000    0    8    8.02444    0.00000   100%     -    0s
         0     0    0.00000    0   14    8.02444    0.00000   100%     -    0s
         0     0    0.00000    0    8    8.02444    0.00000   100%     -    0s
         0     0    0.00000    0   12    8.02444    0.00000   100%     -    0s
         0     0    0.00000    0    8    8.02444    0.00000   100%     -    0s
         0     0    0.00000    0   10    8.02444    0.00000   100%     -    0s
         0     0    0.00000    0   10    8.02444    0.00000   100%     -    0s
         0     0    0.00000    0   12    8.02444    0.00000   100%     -    0s
         0     0    0.00000    0    6    8.02444    0.00000   100%     -    0s
         0     0    0.00000    0   12    8.02444    0.00000   100%     -    0s
         0     0    0.00000    0   10    8.02444    0.00000   100%     -    0s
         0     0    0.00000    0   16    8.02444    0.00000   100%     -    0s
         0     0    0.00000    0    4    8.02444    0.00000   100%     -    0s
         0     0    0.00000    0   13    8.02444    0.00000   100%     -    0s
         0     0    0.00000    0   10    8.02444    0.00000   100%     -    0s
         0     0    0.00000    0   18    8.02444    0.00000   100%     -    0s
         0     0    0.00000    0    4    8.02444    0.00000   100%     -    0s
         0     0    0.00000    0   12    8.02444    0.00000   100%     -    0s
         0     0    0.00000    0    8    8.02444    0.00000   100%     -    0s
         0     0    0.00000    0   14    8.02444    0.00000   100%     -    0s
         0     0    0.00000    0    6    8.02444    0.00000   100%     -    0s
         0     0    0.00000    0   12    8.02444    0.00000   100%     -    0s
         0     0    0.00000    0    8    8.02444    0.00000   100%     -    0s
         0     0    0.00000    0   12    8.02444    0.00000   100%     -    0s
         0     0    0.00000    0    4    8.02444    0.00000   100%     -    0s
         0     0    0.00000    0   16    8.02444    0.00000   100%     -    0s
         0     0    0.00000    0    8    8.02444    0.00000   100%     -    0s
         0     0    0.00000    0   16    8.02444    0.00000   100%     -    0s
         0     0    0.00000    0    6    8.02444    0.00000   100%     -    0s
         0     0    0.00000    0   12    8.02444    0.00000   100%     -    0s
         0     0    0.00000    0   12    8.02444    0.00000   100%     -    0s
         0     0    0.00000    0   14    8.02444    0.00000   100%     -    0s
         0     0    0.00000    0    6    8.02444    0.00000   100%     -    0s
         0     0    0.00000    0   12    8.02444    0.00000   100%     -    0s
         0     0    0.00000    0   12    8.02444    0.00000   100%     -    0s
         0     0    0.00000    0   16    8.02444    0.00000   100%     -    0s
         0     0    0.00000    0    4    8.02444    0.00000   100%     -    0s
         0     0    0.00000    0   14    8.02444    0.00000   100%     -    0s
         0     0    0.00000    0    6    8.02444    0.00000   100%     -    0s
         0     0    0.00000    0   14    8.02444    0.00000   100%     -    0s
         0     0    0.00000    0    4    8.02444    0.00000   100%     -    0s
         0     0    0.00000    0   10    8.02444    0.00000   100%     -    0s
         0     0    0.00000    0   10    8.02444    0.00000   100%     -    0s
         0     0    0.00000    0   14    8.02444    0.00000   100%     -    0s
         0     0    0.00000    0    6    8.02444    0.00000   100%     -    0s
         0     0    0.00000    0   10    8.02444    0.00000   100%     -    0s
         0     0    0.00000    0    4    8.02444    0.00000   100%     -    0s
         0     0    0.00000    0   12    8.02444    0.00000   100%     -    0s
         0     0    0.00000    0   10    8.02444    0.00000   100%     -    0s
         0     0    0.00000    0   16    8.02444    0.00000   100%     -    0s
         0     0    0.00000    0    4    8.02444    0.00000   100%     -    0s
         0     0    0.00000    0   14    8.02444    0.00000   100%     -    0s
         0     0    0.00000    0    6    8.02444    0.00000   100%     -    0s
         0     0    0.00000    0   14    8.02444    0.00000   100%     -    0s
         0     0    0.00000    0    6    8.02444    0.00000   100%     -    0s
         0     0    0.00000    0    8    8.02444    0.00000   100%     -    0s
         0     0    0.00000    0   16    8.02444    0.00000   100%     -    0s
         0     0    0.00000    0    8    8.02444    0.00000   100%     -    0s
         0     2    0.00000    0   12    8.02444    0.00000   100%     -    0s
    H   53    42                       8.0244372    0.00000   100%  10.4    0s
    H  157   102                       8.0244371    0.00000   100%   9.4    0s
    H  314   198                       8.0244371    0.00000   100%   9.4    0s
    H  348   206                       8.0244371    0.00000   100%   9.2    0s
    H 1693   532                       7.8459467    1.53273  80.5%  15.4    1s
    H 6176  1037                       7.7620178    3.73265  51.9%  10.4    2s
    H 8147   987                       7.7620178    4.39425  43.4%  10.1    3s
    H 8199   980                       7.7620178    4.44060  42.8%  10.1    3s
    H 8252   975                       7.7620178    4.46066  42.5%  10.1    3s
    H 8307   971                       7.7620178    4.49139  42.1%  10.1    3s
    
    Cutting planes:
      MIR: 1
      Flow cover: 3
      RLT: 1
    
    Explored 12031 nodes (125504 simplex iterations) in 4.22 seconds (4.78 work units)
    Thread count was 1 (of 96 available processors)
    
    Solution count 5: 7.76202 7.84595 8.02444 ... 10.2471
    
    Optimal solution found (tolerance 1.00e-06)
    Best objective 7.762017798843e+00, best bound 7.762017798843e+00, gap 0.0000%
    
    User-callback calls 12145, time in user-callback 0.00 sec

... Solving fixed model...

    Gurobi Optimizer version 13.0.0 build v13.0.0rc1 (linux64 - "Oracle Linux Server 9.7")
    
    CPU model: AMD EPYC 7643 48-Core Processor, instruction set [SSE2|AVX|AVX2]
    Thread count: 48 physical cores, 96 logical processors, using up to 1 threads
    
    Non-default parameters:
    TimeLimit  300
    MIPGap  1e-06
    LogToConsole  0
    NonConvex  2
    Threads  1
    
    Optimize a model with 12 rows, 55 columns and 34 nonzeros (Min)
    Model fingerprint: 0xb2ba8cc1
    Model has 10 linear objective coefficients
    Model has 30 quadratic constraints
    Coefficient statistics:
      Matrix range     [1e+00, 1e+00]
      QMatrix range    [1e+00, 1e+00]
      QLMatrix range   [2e-02, 1e+01]
      Objective range  [1e+00, 1e+00]
      Bounds range     [1e+00, 1e+02]
      RHS range        [1e+00, 1e+00]
      QRHS range       [8e+00, 1e+01]
    Presolve removed 10 rows and 30 columns
    Presolve time: 0.00s
    Presolved: 71 rows, 80 columns, 178 nonzeros
    Presolved model has 10 second-order cone constraints
    Ordering time: 0.00s
    
    Barrier statistics:
     AA' NZ     : 7.470e+02
     Factor NZ  : 9.390e+02
     Factor Ops : 1.614e+04 (less than 1 second per iteration)
     Threads    : 1
    
                      Objective                Residual
    Iter       Primal          Dual         Primal    Dual     Compl     Time
       0   4.38470552e+02 -3.22716880e+02  8.81e+00 3.66e+00  1.04e+01     0s
       1   4.44994128e+01 -6.63415498e+01  9.69e-06 4.03e-06  9.24e-01     0s
       2   9.13855038e+00 -1.27408998e+00  6.58e-08 2.14e-07  8.68e-02     0s
       3   8.71317469e+00  6.50385048e+00  7.28e-14 1.57e-08  1.84e-02     0s
       4   7.79222798e+00  7.64830119e+00  7.55e-15 1.44e-09  1.20e-03     0s
       5   7.76603148e+00  7.72983329e+00  1.40e-13 4.09e-10  3.02e-04     0s
       6   7.76246659e+00  7.75562406e+00  1.40e-12 8.10e-11  5.70e-05     0s
       7   7.76202325e+00  7.76122108e+00  5.74e-11 9.87e-12  6.68e-06     0s
       8   7.76201901e+00  7.76193906e+00  2.33e-09 1.15e-12  6.66e-07     0s
       9   7.76201829e+00  7.76201376e+00  1.62e-09 1.92e-11  3.77e-08     0s
    
    Barrier solved model in 9 iterations and 0.00 seconds (0.00 work units)
    Optimal objective 7.76201829e+00
    
    
    User-callback calls 0, time in user-callback 0.00 sec
    Warning: to get QCP duals, please set parameter QCPDual to 1

--- Reading solution for model GAMS_MODEL
***
*** Solver did not provide marginals for model GAMS_MODEL
***
--- Executing after solve: elapsed 0:00:04.254
--- model.gms(226) 3 Mb
--- model.gms(375) 5 Mb
--- Putfile results /local/scratch/a/sgusev/repos/k_means/data/gams_gurobi_gdp.bigm/no_mode/2026-02-14_17-58-16/original/results.dat
--- Putfile statresults /local/scratch/a/sgusev/repos/k_means/data/gams_gurobi_gdp.bigm/no_mode/2026-02-14_17-58-16/original/resultsstat.dat
*** Status: Normal completion
--- Job model.gms Stop 02/14/26 17:58:21 elapsed 0:00:04.254
Original problem solved. Time taken: 4.791285991668701 seconds
Original objective value: 7.762018288857334
